%chk=detail_H2.chk
#p hf/sto-3g iop(5/33=3)

Title Card Required

0 1
 H                  0.00000000    0.00000000    0.37042393
 H                  0.00000000    0.00000000   -0.37042393

